; benchmark generated from python API
(set-info :status unknown)
(declare-fun v18 () Bool)
(declare-fun v22 () Bool)
(declare-fun v28 () Bool)
(declare-fun v30 () Bool)
(declare-fun v26 () Bool)
(declare-fun v24 () Bool)
(declare-fun v20 () Bool)
(declare-fun v16 () Bool)
(declare-fun v14 () Bool)
(declare-fun v12 () Bool)
(declare-fun v28_prime () Bool)
(declare-fun v22_prime () Bool)
(declare-fun v18_prime () Bool)
(declare-fun v30_prime () Bool)
(declare-fun i10 () Bool)
(declare-fun v26_prime () Bool)
(declare-fun i8 () Bool)
(declare-fun v24_prime () Bool)
(declare-fun i6 () Bool)
(declare-fun v20_prime () Bool)
(declare-fun i4 () Bool)
(declare-fun v16_prime () Bool)
(declare-fun v14_prime () Bool)
(declare-fun i2 () Bool)
(declare-fun v12_prime () Bool)
(assert
 (= v18 true))
(assert
 (= v22 true))
(assert
 (= v28 true))
(assert
 (let (($x585 (and v18 v22 v28)))
 (let (($x70 (not v30)))
 (let (($x55 (not v28)))
 (let (($x50 (not v26)))
 (let (($x51 (not v24)))
 (let (($x45 (not v22)))
 (let (($x46 (not v20)))
 (let (($x40 (not v18)))
 (let (($x41 (not v16)))
 (let (($x35 (not v14)))
 (let (($x36 (not v12)))
 (let (($x141 (and $x36 $x35 $x41 $x40 $x46 $x45 $x51 $x50 $x55 $x70)))
 (let (($x449 (not (= v14 v30_prime))))
 (let (($x58 (and (not (and v30 $x55)) i10)))
 (let (($x139 (= v28_prime $x58)))
 (let (($x458 (not (= v30 v26_prime))))
 (let (($x54 (and (not (and $x50 $x51)) i8)))
 (let (($x137 (= v24_prime $x54)))
 (let (($x136 (= v22_prime v26)))
 (let (($x49 (and (not (and $x45 $x46)) i6)))
 (let (($x135 (= v20_prime $x49)))
 (let (($x134 (= v18_prime v22)))
 (let (($x44 (and (not (and $x40 $x41)) i4)))
 (let (($x133 (= v16_prime $x44)))
 (let (($x132 (= v14_prime v18)))
 (let (($x39 (and (not (and $x35 $x36)) i2)))
 (let (($x131 (= v12_prime $x39)))
 (let (($x197 (not $x585)))
 (let (($x332 (not (and v26 v22))))
 (let (($x561 (not (and v26 $x70))))
 (let (($x550 (not (and v14 v22))))
 (let (($x438 (not (and v20 $x70))))
 (let (($x503 (not (and v18 v26))))
 (let (($x436 (not (and v22 $x70))))
 (let (($x68 (not (and v26 v24))))
 (let (($x74 (not i10)))
 (let (($x66 (not (and v22 v20))))
 (let (($x64 (not (and v14 v12))))
 (let (($x63 (not (and v18 v16))))
 (let (($x72 (not (and $x70 v28))))
 (let (($x254 (not (and (not (and $x72 $x63 $x64 $x66 $x68 $x74)) $x68))))
 (let (($x244 (not (and $x72 (not (and $x63 $x64 $x66 $x68))))))
 (let (($x277 (not (and $x244 i10 $x254 i8))))
 (let (($x230 (not (and (not (and $x72 $x63 $x64 $x66 $x68 $x74 (not i8))) $x66))))
 (let (($x275 (not (and $x230 i6 $x244 i10))))
 (let (($x273 (not (and $x230 i6 $x254 i8))))
 (let (($x239 (and (not (and $x72 $x63 $x64 $x66 $x68 $x74 (not i8) (not i6))) $x63)))
 (let (($x240 (not $x239)))
 (let (($x271 (not (and $x240 i4 $x244 i10))))
 (let (($x269 (not (and $x240 i4 $x254 i8))))
 (let (($x237 (not (and $x240 i4 $x230 i6))))
 (let (($x102 (not i4)))
 (let (($x93 (not i6)))
 (let (($x85 (not i8)))
 (let (($x266 (not (and (not (and $x72 $x63 $x64 $x66 $x68 $x74 $x85 $x93 $x102)) $x64))))
 (let (($x243 (not (and $x266 i2 $x244 i10))))
 (let (($x253 (not (and $x266 i2 $x254 i8))))
 (let (($x263 (not (and $x266 i2 $x230 i6))))
 (let (($x265 (not (and $x266 i2 $x240 i4))))
 (let (($x278 (and $x265 $x263 $x253 $x243 $x237 $x269 $x271 $x273 $x275 $x277)))
 (let (($x455 (and (and $x278 $x40 $x35 $x46 $x41 $x436 $x503 $x36 $x438 $x550 $x561 $x332) $x197 (and $x131 $x132 $x133 $x134 $x135 $x136 $x137 $x458 $x139 $x449) (and v18_prime v22_prime v28_prime))))
 (not (and (not $x455) (not (and (and $x141) $x585))))))))))))))))))))))))))))))))))))))))))))))))))))))))))))))))))
(check-sat)
